Problem:    
Rows:       260
Columns:    89 (72 integer, 72 binary)
Non-zeros:  974
Status:     INTEGER OPTIMAL
Objective:  value = 108.806194 (MINimum)

   No.   Row name        Activity     Lower bound   Upper bound
------ ------------    ------------- ------------- -------------
     1 r.5                   108.806             0               
     2 r.6                   65.3149      -975.319               
     3 r.7                   1108.81             0               
     4 r.8                  -941.805      -951.455               
     5 r.9                   1108.81             0               
     6 r.10                  -934.53      -975.402               
     7 r.11                  108.806             0               
     8 r.12                  65.4702      -951.358               
     9 r.13                  1108.81             0               
    10 r.14                 -962.852      -994.451               
    11 r.15                  108.806             0               
    12 r.16                  64.9868      -993.193               
    13 r.17                  1108.81             0               
    14 r.18                 -968.401      -990.223               
    15 r.19                  108.806             0               
    16 r.20                  65.4702      -989.481               
    17 r.21                  1108.81             0               
    18 r.22                 -981.902      -988.907               
    19 r.23                  108.806             0               
    20 r.24                  64.9868      -976.383               
    21 r.25                  1108.81             0               
    22 r.26                  -996.72       -996.72               
    23 r.27                  108.806             0               
    24 r.28                 -994.646      -994.646               
    25 r.29                  1108.81             0               
    26 r.30                 -891.194      -956.664               
    27 r.31                  108.806             0               
    28 r.32                  108.806      -950.926               
    29 r.33                  108.806             0               
    30 r.34                  108.806       -959.52               
    31 r.35                  1108.81             0               
    32 r.36                 -891.194      -952.785               
    33 r.37                        1             1             = 
    34 r.38                        1             1             = 
    35 r.39                        1             1             = 
    36 r.40                        1             1             = 
    37 r.41                        1             1             = 
    38 r.42                        1             1             = 
    39 r.43                        1             1             = 
    40 r.44                        1             1             = 
    41 r.45                     1001             2               
    42 r.46                    -1001         -1001               
    43 r.47                  2003.88      -975.402               
    44 r.48                     1001             2               
    45 r.49                    -1001         -1001               
    46 r.50                  2003.88      -951.358               
    47 r.51                     1001             2               
    48 r.52                    -1001         -1001               
    49 r.53                  1975.56      -994.451               
    50 r.54                     1001             2               
    51 r.55                    -1001         -1001               
    52 r.56                   2003.4      -993.193               
    53 r.57                     1001             2               
    54 r.58                    -1001         -1001               
    55 r.59                  1970.01      -990.223               
    56 r.60                     1001             2               
    57 r.61                    -1001         -1001               
    58 r.62                  2003.88      -989.481               
    59 r.63                     1001             2               
    60 r.64                    -1001         -1001               
    61 r.65                  1956.51      -988.907               
    62 r.66                     1001             2               
    63 r.67                    -1001         -1001               
    64 r.68                   2003.4      -976.383               
    65 r.69                  58.3105      -975.319               
    66 r.70                 -948.809      -951.455               
    67 r.71                  1063.36      -975.319               
    68 r.72                   56.237      -951.455               
    69 r.73                 -952.785      -956.664               
    70 r.74                  47.2153      -950.926               
    71 r.75                 -952.785      -956.664               
    72 r.76                  47.2153      -950.926               
    73 r.77                  47.2153       -959.52               
    74 r.78                 -952.785      -952.785               
    75 r.79                  47.2153       -959.52               
    76 r.80                 -952.785      -952.785               
    77 r.81                     1001             2               
    78 r.82                    -1001         -1001               
    79 r.83                  1999.84       24.6813               
    80 r.84                     1001             2               
    81 r.85                    -1001         -1001               
    82 r.86                  1992.72       48.5454               
    83 r.87                        2             2               
    84 r.88                       -2         -1001               
    85 r.89                 -28.3218      -994.451               
    86 r.90                     1000             2               
    87 r.91                    -1000         -1001               
    88 r.92                  1999.52      -993.193               
    89 r.93                        2             2               
    90 r.94                       -2         -1001               
    91 r.95                 -33.8712      -990.223               
    92 r.96                     1000             2               
    93 r.97                    -1000         -1001               
    94 r.98                     2000      -989.481               
    95 r.99                        2             2               
    96 r.100                      -2         -1001               
    97 r.101                -47.3724      -988.907               
    98 r.102                    1000             2               
    99 r.103                   -1000         -1001               
   100 r.104                 1999.52      -976.383               
   101 r.105                -941.534      -975.402               
   102 r.106                 58.4658      -951.358               
   103 r.107                 63.5122      -975.402               
   104 r.108                 1063.51      -951.358               
   105 r.109                -956.664      -956.664               
   106 r.110                  43.336      -950.926               
   107 r.111                -956.664      -956.664               
   108 r.112                  43.336      -950.926               
   109 r.113                    1001             2               
   110 r.114                   -1001         -1001               
   111 r.115                 2043.34       -959.52               
   112 r.116                    1001             2               
   113 r.117                   -1001         -1001               
   114 r.118                 2043.34      -952.785               
   115 r.119                    1001             2               
   116 r.120                   -1001         -1001               
   117 r.121                 2024.44       24.6813               
   118 r.122                    1001             2               
   119 r.123                   -1001         -1001               
   120 r.124                  1996.6       48.5454               
   121 r.125                       2             2               
   122 r.126                      -2         -1001               
   123 r.127                 24.5978       24.5978               
   124 r.128                    1000             2               
   125 r.129                   -1000         -1001               
   126 r.130                 2003.88       48.6421               
   127 r.131                       2             2               
   128 r.132                      -2         -1001               
   129 r.133                -9.27338      -990.223               
   130 r.134                    1000             2               
   131 r.135                   -1000         -1001               
   132 r.136                 2003.88      -989.481               
   133 r.137                       2             2               
   134 r.138                      -2         -1001               
   135 r.139                -22.7746      -988.907               
   136 r.140                    1000             2               
   137 r.141                   -1000         -1001               
   138 r.142                  2003.4      -976.383               
   139 r.143                -969.856      -994.451               
   140 r.144                 57.9824      -993.193               
   141 r.145                 35.1904      -994.451               
   142 r.146                 1063.03      -993.193               
   143 r.147                -932.066      -956.664               
   144 r.148                 67.9338      -950.926               
   145 r.149                -952.785      -956.664               
   146 r.150                 47.2153      -950.926               
   147 r.151                 67.9338       -959.52               
   148 r.152                -932.066      -952.785               
   149 r.153                 47.2153       -959.52               
   150 r.154                -952.785      -952.785               
   151 r.155                    1001             2               
   152 r.156                   -1001         -1001               
   153 r.157                 2033.72       24.6813               
   154 r.158                    1001             2               
   155 r.159                   -1001         -1001               
   156 r.160                 1992.72       48.5454               
   157 r.161                       2             2               
   158 r.162                      -2         -1001               
   159 r.163                 33.8712       24.5978               
   160 r.164                    1000             2               
   161 r.165                   -1000         -1001               
   162 r.166                    2000       48.6421               
   163 r.167                       2             2               
   164 r.168                      -2         -1001               
   165 r.169                  5.5494        5.5494               
   166 r.170                    1000             2               
   167 r.171                   -1000         -1001               
   168 r.172                 1999.52       6.80669               
   169 r.173                       2             2               
   170 r.174                      -2         -1001               
   171 r.175                -13.5012      -988.907               
   172 r.176                    1000             2               
   173 r.177                   -1000         -1001               
   174 r.178                 1999.52      -976.383               
   175 r.179                -975.405      -990.223               
   176 r.180                 58.4658      -989.481               
   177 r.181                  29.641      -990.223               
   178 r.182                 1063.51      -989.481               
   179 r.183                -922.793      -956.664               
   180 r.184                 77.2072      -950.926               
   181 r.185                -956.664      -956.664               
   182 r.186                  43.336      -950.926               
   183 r.187                    1001             2               
   184 r.188                   -1001         -1001               
   185 r.189                 2077.21       -959.52               
   186 r.190                    1001             2               
   187 r.191                   -1001         -1001               
   188 r.192                 2043.34      -952.785               
   189 r.193                    1001             2               
   190 r.194                   -1001         -1001               
   191 r.195                 2043.49       24.6813               
   192 r.196                    1001             2               
   193 r.197                   -1001         -1001               
   194 r.198                  1996.6       48.5454               
   195 r.199                       2             2               
   196 r.200                      -2         -1001               
   197 r.201                 43.6484       24.5978               
   198 r.202                    1000             2               
   199 r.203                   -1000         -1001               
   200 r.204                 2003.88       48.6421               
   201 r.205                       2             2               
   202 r.206                      -2         -1001               
   203 r.207                 15.3266        5.5494               
   204 r.208                    1000             2               
   205 r.209                   -1000         -1001               
   206 r.210                  2003.4       6.80669               
   207 r.211                       2             2               
   208 r.212                      -2         -1001               
   209 r.213                  9.7772        9.7772               
   210 r.214                    1000             2               
   211 r.215                   -1000         -1001               
   212 r.216                 2003.88       10.5188               
   213 r.217                -988.907      -988.907               
   214 r.218                 57.9824      -976.383               
   215 r.219                 16.1399      -988.907               
   216 r.220                 1063.03      -976.383               
   217 r.221                       2             2               
   218 r.222                      -2         -1001               
   219 r.223                -913.016      -956.664               
   220 r.224                    1000             2               
   221 r.225                   -1000         -1001               
   222 r.226                 2047.22      -950.926               
   223 r.227                 86.9844       -959.52               
   224 r.228                -913.016      -952.785               
   225 r.229                 47.2153       -959.52               
   226 r.230                -952.785      -952.785               
   227 r.231                -898.198      -956.664               
   228 r.232                 101.802      -950.926               
   229 r.233                 106.848      -956.664               
   230 r.234                 1106.85      -950.926               
   231 r.235                       2             2               
   232 r.236                      -2         -1001               
   233 r.237                 909.292       11.0935               
   234 r.238                    1000             2               
   235 r.239                   -1000         -1001               
   236 r.240                 1956.18        23.617               
   237 r.241                    1001             2               
   238 r.242                   -1001         -1001               
   239 r.243                    2000       -959.52               
   240 r.244                    1001             2               
   241 r.245                   -1001         -1001               
   242 r.246                    2000      -952.785               
   243 r.247                    1001             2               
   244 r.248                   -1001         -1001               
   245 r.249                 1956.66       24.5978               
   246 r.250                    1001             2               
   247 r.251                   -1001         -1001               
   248 r.252                 1956.66       48.6421               
   249 r.253                    1001             2               
   250 r.254                   -1001         -1001               
   251 r.255                 1922.79        9.7772               
   252 r.256                    1001             2               
   253 r.257                   -1001         -1001               
   254 r.258                 1956.66       10.5188               
   255 r.259                    1001             2               
   256 r.260                   -1001         -1001               
   257 r.261                    2000        43.336               
   258 r.262                    1001             2               
   259 r.263                   -1001         -1001               
   260 r.264                    2000       49.0739               

   No. Column name       Activity     Lower bound   Upper bound
------ ------------    ------------- ------------- -------------
     1 tt                    108.806             0               
     2 s_1_1        *              0             0             1 
     3 t_1_1                 47.2153             0               
     4 s_1_8        *              0             0             1 
     5 s_1_7        *              1             0             1 
     6 s_2_1        *              1             0             1 
     7 t_2_1                 47.2153             0               
     8 s_2_8        *              1             0             1 
     9 s_2_7        *              0             0             1 
    10 s_1_2        *              1             0             1 
    11 t_1_2                  43.336             0               
    12 s_2_2        *              0             0             1 
    13 t_2_2                  43.336             0               
    14 s_1_3        *              1             0             1 
    15 t_1_3                 67.9338             0               
    16 s_2_3        *              0             0             1 
    17 t_2_3                 47.2153             0               
    18 s_1_4        *              1             0             1 
    19 t_1_4                 77.2072             0               
    20 s_2_4        *              0             0             1 
    21 t_2_4                  43.336             0               
    22 s_1_5        *              1             0             1 
    23 t_1_5                 86.9844             0               
    24 s_2_5        *              0             0             1 
    25 t_2_5                 47.2153             0               
    26 s_1_6        *              1             0             1 
    27 t_1_6                 101.802             0               
    28 s_2_6        *              0             0             1 
    29 t_2_6                 1106.85             0               
    30 t_1_7                       0             0               
    31 t_2_7                       0             0               
    32 t_1_8                       0             0               
    33 t_2_8                       0             0               
    34 r_1_1_2      *              1             0             1 
    35 u_1_1_2      *              0             0             1 
    36 r_2_1_2      *              1             0             1 
    37 u_2_1_2      *              0             0             1 
    38 r_1_1_3      *              1             0             1 
    39 u_1_1_3      *              0             0             1 
    40 r_2_1_3      *              1             0             1 
    41 u_2_1_3      *              0             0             1 
    42 r_1_1_4      *              1             0             1 
    43 u_1_1_4      *              0             0             1 
    44 r_2_1_4      *              1             0             1 
    45 u_2_1_4      *              0             0             1 
    46 r_1_1_5      *              1             0             1 
    47 u_1_1_5      *              0             0             1 
    48 r_2_1_5      *              1             0             1 
    49 u_2_1_5      *              0             0             1 
    50 r_1_2_3      *              0             0             1 
    51 u_1_2_3      *              0             0             1 
    52 r_2_2_3      *              1             0             1 
    53 u_2_2_3      *              0             0             1 
    54 r_1_2_4      *              0             0             1 
    55 u_1_2_4      *              0             0             1 
    56 r_2_2_4      *              1             0             1 
    57 u_2_2_4      *              0             0             1 
    58 r_1_2_5      *              0             0             1 
    59 u_1_2_5      *              0             0             1 
    60 r_2_2_5      *              1             0             1 
    61 u_2_2_5      *              0             0             1 
    62 r_1_2_8      *              1             0             1 
    63 u_1_2_8      *              0             0             1 
    64 r_2_2_8      *              1             0             1 
    65 u_2_2_8      *              0             0             1 
    66 r_1_3_4      *              0             0             1 
    67 u_1_3_4      *              0             0             1 
    68 r_2_3_4      *              1             0             1 
    69 u_2_3_4      *              0             0             1 
    70 r_1_3_5      *              0             0             1 
    71 u_1_3_5      *              0             0             1 
    72 r_2_3_5      *              1             0             1 
    73 u_2_3_5      *              0             0             1 
    74 r_1_4_5      *              0             0             1 
    75 u_1_4_5      *              0             0             1 
    76 r_2_4_5      *              1             0             1 
    77 u_2_4_5      *              0             0             1 
    78 r_1_4_8      *              1             0             1 
    79 u_1_4_8      *              0             0             1 
    80 r_2_4_8      *              1             0             1 
    81 u_2_4_8      *              0             0             1 
    82 r_1_5_7      *              0             0             1 
    83 u_1_5_7      *              1             0             1 
    84 r_2_5_7      *              1             0             1 
    85 u_2_5_7      *              0             0             1 
    86 r_1_7_8      *              1             0             1 
    87 u_1_7_8      *              0             0             1 
    88 r_2_7_8      *              1             0             1 
    89 u_2_7_8      *              0             0             1 

Integer feasibility conditions:

KKT.PE: max.abs.err = 4.55e-13 on row 22
        max.rel.err = 2.02e-16 on row 22
        High quality

KKT.PB: max.abs.err = 1.14e-13 on row 24
        max.rel.err = 1.15e-16 on row 213
        High quality

End of output
